Log file: C:\Users\user\robust_bilevel_network_games\true_dro\S20_beta0p5_cov95\log_polska_20260417_1426852.txt
Started: 2026-04-17T14:26:26.853


======================================================================
INSTANCE: polska (S=20, β=0.5, ε̂=0.58, ε̃=0.58)
======================================================================
============================================================
POLSKA Network Summary
============================================================
Number of nodes: 12
Number of arcs (incl. dummy): 37
Number of regular arcs: 36
Number of interdictable arcs: 28
Source node: s (Szczecin)
Sink node: t (Rzeszow)
Node-incidence matrix N dimensions: (11, 37)

Sparsity Information:
  Arc-arc adjacency: 384 / 1296 pairs (70.4% sparse)
  Node-arc incidence: 68 / 396 pairs (82.8% sparse)

First 15 arcs:
  Arc 1: ("Bialystok", "Gdansk") [Interdictable: ✓]
  Arc 2: ("Bialystok", "Warsaw") [Interdictable: ✓]
  Arc 3: ("Bialystok", "t") [Interdictable: ✗]
  Arc 4: ("Bydgoszcz", "Kolobrzeg") [Interdictable: ✓]
  Arc 5: ("Bydgoszcz", "Poznan") [Interdictable: ✓]
  Arc 6: ("Bydgoszcz", "Warsaw") [Interdictable: ✓]
  Arc 7: ("Gdansk", "Bialystok") [Interdictable: ✓]
  Arc 8: ("Gdansk", "Kolobrzeg") [Interdictable: ✓]
  Arc 9: ("Gdansk", "Warsaw") [Interdictable: ✓]
  Arc 10: ("Katowice", "Krakow") [Interdictable: ✓]
  Arc 11: ("Katowice", "Lodz") [Interdictable: ✓]
  Arc 12: ("Katowice", "Wroclaw") [Interdictable: ✓]
  Arc 13: ("Kolobrzeg", "Bydgoszcz") [Interdictable: ✓]
  Arc 14: ("Kolobrzeg", "Gdansk") [Interdictable: ✓]
  Arc 15: ("Kolobrzeg", "s") [Interdictable: ✗]
============================================================
  |A|=36, S=20, γ=3, w=3.137, λU=2.0
  ε̂=0.58, ε̃=0.58

----------------------------------------
VI-only OMP diagnostic (no Benders cuts)
Set parameter Username
Set parameter LicenseID to value 2742039
Academic license - for non-commercial use only - expires 2026-11-20
Set parameter OutputFlag to value 1
Set parameter OutputFlag to value 1
Gurobi Optimizer version 13.0.0 build v13.0.0rc1 (win64 - Windows 10.0 (19045.2))

CPU model: AMD Ryzen 9 5900X 12-Core Processor, instruction set [SSE2|AVX|AVX2]
Thread count: 12 physical cores, 24 logical processors, using up to 24 threads

Optimize a model with 2910 rows, 1697 columns and 8465 nonzeros (Min)
Model fingerprint: 0xbbcde029
Model has 1 linear objective coefficients
Variable types: 1661 continuous, 36 integer (36 binary)
Coefficient statistics:
  Matrix range     [1e-02, 1e+00]
  Objective range  [1e+00, 1e+00]
  Bounds range     [1e+00, 1e+04]
  RHS range        [1e+00, 3e+00]
Found heuristic solution: objective 26.2956887
Presolve removed 1369 rows and 392 columns
Presolve time: 0.01s
Presolved: 1541 rows, 1305 columns, 3625 nonzeros
Found heuristic solution: objective 26.2956887
Variable types: 1280 continuous, 25 integer (25 binary)

Root relaxation: objective 5.717649e-15, 297 iterations, 0.00 seconds (0.00 work units)

    Nodes    |    Current Node    |     Objective Bounds      |     Work
 Expl Unexpl |  Obj  Depth IntInf | Incumbent    BestBd   Gap | It/Node Time

*    0     0               0       0.0000000    0.00000  0.00%     -    0s

Explored 1 nodes (297 simplex iterations) in 0.01 seconds (0.01 work units)
Thread count was 24 (of 24 available processors)

Solution count 2: 1.33227e-15 26.2957 

Optimal solution found (tolerance 1.00e-04)
Best objective 0.000000000000e+00, best bound 0.000000000000e+00, gap 0.0000%

User-callback calls 41, time in user-callback 0.00 sec
  VI-only LB = 0.000000, x = [0, 0, 0, 0, 0, 0, 0, 0, 0, 0, 0, 1, 0, 0, 0, 0, 0, 0, 0, 0, 1, 0, 1, 0, 0, 0, 0, 0, 0, 0, 0, 0, 0, 0, 0, 0]
----------------------------------------

======================================================================
1. True-DRO Benders (bilinear subproblem via Gurobi NonConvex=2)
======================================================================
Set parameter Username
Set parameter LicenseID to value 2742039
Academic license - for non-commercial use only - expires 2026-11-20
Set parameter Username
Set parameter LicenseID to value 2742039
Academic license - for non-commercial use only - expires 2026-11-20
Set parameter DualReductions to value 0
Set parameter NonConvex to value 2
Set parameter LogFile to value "global_miqcp.log"
Set parameter Username
Set parameter LicenseID to value 2742039
Academic license - for non-commercial use only - expires 2026-11-20
Set parameter DualReductions to value 0
Set parameter NonConvex to value 2
Set parameter OptimalityTarget to value 1
Set parameter Username
Set parameter LicenseID to value 2742039
Academic license - for non-commercial use only - expires 2026-11-20
Set parameter Username
Set parameter LicenseID to value 2742039
Academic license - for non-commercial use only - expires 2026-11-20
Set parameter Username
Set parameter LicenseID to value 2742039
Academic license - for non-commercial use only - expires 2026-11-20

=== True-DRO Benders iter 1 ===
  OMP: t₀=0.000000, UB=Inf, gap=NaN, x=[0, 0, 0, 0, 0, 0, 0, 0, 0, 0, 0, 1, 0, 0, 0, 0, 0, 0, 0, 0, 1, 0, 1, 0, 0, 0, 0, 0, 0, 0, 0, 0, 0, 0, 0, 0] (0.016s)
Set parameter TimeLimit to value 30
Set parameter MIPGap to value 0.0001
Set parameter MIPFocus to value 0
Set parameter NonConvex to value 2
Set parameter MIPGap to value 0.0001
Set parameter DualReductions to value 0
Set parameter OptimalityTarget to value 1
Set parameter MIPFocus to value 0
Set parameter TimeLimit to value 30
Gurobi Optimizer version 13.0.0 build v13.0.0rc1 (win64 - Windows 10.0 (19045.2))

CPU model: AMD Ryzen 9 5900X 12-Core Processor, instruction set [SSE2|AVX|AVX2]
Thread count: 12 physical cores, 24 logical processors, using up to 24 threads

Non-default parameters:
TimeLimit  30
OptimalityTarget  1
DualReductions  0
NonConvex  2

Optimize a model with 4218 rows, 8405 columns and 20033 nonzeros (Max)
Model fingerprint: 0xa8eb2bcd
Model has 1496 linear objective coefficients
Model has 1440 quadratic constraints
Coefficient statistics:
  Matrix range     [2e-01, 3e+01]
  QMatrix range    [1e+00, 1e+00]
  QLMatrix range   [1e+00, 1e+00]
  Objective range  [1e+00, 2e+00]
  Bounds range     [1e+00, 1e+01]
  RHS range        [5e-02, 3e+00]

Continuous model is non-convex -- solving with NL barrier

Presolve removed 1440 rows and 1440 columns
Presolve time: 0.01s
Presolved: 2778 rows, 6965 columns, 12833 nonzeros
Presolved model has 1440 quadratic constraint(s)
Ordering time: 0.00s

NL barrier statistics:
  Hessian NZ  : 1.440e+03
  Jacobian NZ : 2.003e+04
  Factor NZ   : 1.308e+05
  Factor Ops  : 2.546e+06
  Threads     : 1

                           Residuals
Iter     Objective      Primal     Dual      Compl     Step     Time
   0  -1.09367926e+04  7.68e+04  2.94e+03  3.71e+02  0.00e+00     0s
   1  -1.13830265e+04  5.76e+04  2.59e+03  3.27e+02  2.51e-01     0s
   2  -1.21221068e+04  3.31e+04  2.18e+03  2.89e+02  4.25e-01     0s
   3  -1.24446299e+04  2.41e+04  1.21e+03  1.54e+02  2.74e-01     0s
   4  -1.25938761e+04  1.95e+04  4.96e+02  5.74e+01  1.90e-01     0s
   5  -1.23640119e+04  5.53e+03  2.57e+02  2.89e+01  7.16e-01     0s
   6  -1.18394746e+04  4.24e+03  6.55e+01  8.79e+00  2.32e-01     0s
   7  -7.71903456e+03  7.91e+02  6.91e+00  1.74e+00  8.14e-01     0s
   8  -6.12489477e+03  3.59e+02  2.58e+00  1.32e+00  5.47e-01     0s
   9  -5.66358554e+03  2.20e+02  1.55e+00  1.20e+00  3.85e-01     0s
  10  -5.38795966e+03  1.41e+02  8.26e-01  1.12e+00  3.62e-01     0s
  11  -5.17749256e+03  8.34e+01  4.11e-01  1.07e+00  4.07e-01     0s
  12  -5.03459239e+03  5.12e+01  2.25e-01  1.04e+00  3.86e-01     0s
  13  -4.91467814e+03  2.50e+01  3.29e-02  1.01e+00  5.11e-01     0s
  14  -4.81459437e+03  2.62e-06  9.45e-05  1.00e+00  1.00e+00     0s
  15  -4.80979801e+03  8.27e-09  2.21e-07  1.00e+00  1.00e+00     0s
  16  -4.80943135e+03  2.24e-09  2.50e-08  1.00e+00  1.00e+00     0s
  17  -2.69390315e+03  2.11e-05  3.08e-03  4.06e-01  6.34e-01     0s
  18  -1.37842299e+03  1.54e-04  5.92e-02  3.01e-01  7.26e-01     0s
  19  -8.07162461e+02  1.46e-04  5.08e-02  1.62e-01  9.02e-01     0s
  20  -7.49308581e+02  3.01e-04  1.20e-02  1.50e-01  1.00e+00     0s
  21  -7.49018379e+02  4.38e-06  4.76e-05  1.50e-01  1.00e+00     0s
  22  -4.67699877e+02  3.31e-04  6.89e-02  8.58e-02  3.92e-01     0s
  23  -2.58949699e+02  7.49e-03  5.19e-01  4.64e-02  4.97e-01     0s
  24  -1.36991317e+02  6.91e-03  3.65e-01  2.80e-02  6.24e-01     0s
  25  -7.21079376e+01  6.31e-03  6.30e-02  2.25e-02  1.00e+00     0s
  26  -7.38636871e+01  1.36e-04  2.63e-03  2.25e-02  1.00e+00     0s
  27  -7.37987276e+01  1.33e-06  1.81e-04  2.25e-02  1.00e+00     0s
  28  -2.05683283e+01  1.53e-02  1.54e-01  1.36e-02  6.00e-01     0s
  29   9.12459802e+00  3.65e-02  1.79e-01  7.58e-03  8.64e-01     0s
  30   1.00637963e+01  3.21e-02  6.88e-02  5.45e-03  1.25e-01     0s
  31   1.40627212e+01  2.00e-03  1.58e-02  3.64e-03  1.00e+00     0s
  32   1.47610359e+01  1.48e-04  6.77e-04  3.38e-03  9.66e-01     0s
  33   1.46797074e+01  2.76e-06  4.44e-05  3.37e-03  1.00e+00     0s
  34   1.46901191e+01  8.34e-09  8.07e-07  3.37e-03  1.00e+00     0s
  35   1.87095204e+01  8.22e-04  4.24e-02  1.67e-03  2.94e-01     0s
  36   2.16871595e+01  2.04e-03  4.21e-02  1.02e-03  3.31e-01     0s
  37   2.58871582e+01  5.61e-03  1.92e-02  6.63e-04  7.32e-01     0s
  38   2.67237107e+01  2.55e-03  2.86e-02  5.87e-04  5.52e-01     0s
  39   2.71476143e+01  1.07e-03  6.68e-03  4.15e-04  5.95e-01     0s
  40   2.74649092e+01  5.25e-05  1.24e-02  3.96e-04  9.69e-01     0s
  41   2.74766865e+01  1.19e-05  2.80e-04  3.47e-04  7.72e-01     0s
  42   2.74807823e+01  1.10e-07  4.11e-07  3.46e-04  1.00e+00     0s
  43   2.74808019e+01  6.86e-10  6.15e-09  3.46e-04  1.00e+00     0s
  44   2.74808056e+01  5.48e-11  1.49e-10  3.46e-04  1.00e+00     0s
  45   2.78662164e+01  2.73e-05  1.28e-02  1.55e-04  2.70e-01     0s
  46   2.81156743e+01  7.66e-05  1.53e-02  1.00e-04  2.31e-01     0s
  47   2.88373007e+01  1.96e-04  9.32e-03  3.79e-05  8.92e-01     0s
  48   2.88500660e+01  1.72e-04  3.35e-03  1.94e-05  1.25e-01     0s
  49   2.89014458e+01  6.41e-05  1.41e-03  1.61e-05  6.26e-01     0s
  50   2.89308957e+01  6.65e-06  1.08e-03  1.44e-05  8.98e-01     0s
  51   2.89319185e+01  4.51e-06  1.13e-04  1.44e-05  3.22e-01     0s
  52   2.89340640e+01  3.44e-09  5.99e-09  1.43e-05  1.00e+00     0s
  53   2.89340640e+01  2.59e-11  7.06e-13  1.43e-05  1.00e+00     0s
  54   2.89886384e+01  1.56e-06  2.88e-05  1.92e-06  8.58e-01     0s
  55   2.89978827e+01  5.47e-08  1.57e-07  1.65e-07  1.00e+00     0s
  56   2.89978828e+01  3.37e-13  6.37e-10  1.65e-07  1.00e+00     0s
  57   2.89986258e+01  3.07e-10  1.33e-09  1.00e-09  1.00e+00     0s

NL barrier solved model in 57 iterations and 0.26 seconds (0.34 work units)
First-order optimal solution
Solution objective 2.899862583628e+01

User-callback calls 223, time in user-callback 0.00 sec
  Sub: Z₀=28.998626 [LOCAL], α=[0.000,0.000,0.000,0.000,0.000,0.000,0.000,0.000,0.000,0.000,0.000,0.000,0.000,0.000,0.000,0.000,0.000,0.000,0.000,0.000,0.000,0.000,3.137,0.000,0.000,0.000,0.000,0.000,0.000,0.000,0.000,0.000,0.000,0.000,0.000,0.000]
  Iter 1: LB=0.000000  UB=Inf  gap=NaN
  Cut: intercept=-864.831008, π_x_range=[-420.2394, 299.0071]
  [ρ-diag] φ̂U=1.00, φ̃U=2.00, λU=2.00
    π_L range=[-137.6835, 90.7927], |π_L|_∞=137.6835
    π_F range=[-269.3610, 191.8074], |π_F|_∞=269.3610
    π_ψ range=[-13.3333, 17.7822], |π_ψ|_∞=17.7822
    ρ̂1: [0.0000, 8.7913], ρ̂3: [0.0000, 5.0000]
    ρ̃1: [0.0000, 6.8622], ρ̃3: [0.0000, 4.9801]
    ρ⁰1: [0.0000, 6.6667], ρ⁰3: [0.0000, 8.8911]
  [φ-diag] φ̂ actual: [-0.0000, 1.0000], φ̂U=1.00
  [φ-diag] φ̃ actual: [-0.0000, 2.0000], φ̃U=2.00
  Mini-Benders[1] (mw): LB=0.000000, Z₀(α*)=31.177279, intercept=40.606570
  Mini-Benders[2] (mw): LB=-0.000000, Z₀(α*)=3.137000, intercept=20.425981
  Mini-Benders[3] (mw): LB=1.509223, Z₀(α*)=6.003509, intercept=21.275316
  Mini-Benders[4] (mw): LB=2.484152, Z₀(α*)=8.413947, intercept=24.544369
  Mini-Benders[5] (mw): LB=3.136999, Z₀(α*)=3.137000, intercept=20.425981
Set parameter NonConvex to value 2
Set parameter DualReductions to value 0
Set parameter LogFile to value "global_miqcp.log"
Gurobi Optimizer version 13.0.0 build v13.0.0rc1 (win64 - Windows 10.0 (19045.2))

CPU model: AMD Ryzen 9 5900X 12-Core Processor, instruction set [SSE2|AVX|AVX2]
Thread count: 12 physical cores, 24 logical processors, using up to 24 threads

Non-default parameters:
DualReductions  0
NonConvex  2

Optimize a model with 4218 rows, 8405 columns and 20033 nonzeros (Max)
Model fingerprint: 0x8b6245e4
Model has 1496 linear objective coefficients
Model has 1440 quadratic constraints
Coefficient statistics:
  Matrix range     [2e-01, 3e+01]
  QMatrix range    [1e+00, 1e+00]
  QLMatrix range   [1e+00, 1e+00]
  Objective range  [1e+00, 2e+00]
  Bounds range     [2e-02, 3e+00]
  RHS range        [5e-02, 3e+00]
Presolve removed 102 rows and 832 columns
Presolve time: 0.00s
Presolved: 4764 rows, 7573 columns, 17737 nonzeros
Ordering time: 0.00s

Barrier statistics:
 Free vars  : 200
 AA' NZ     : 1.775e+04
 Factor NZ  : 1.505e+05 (roughly 6 MB of memory)
 Factor Ops : 1.434e+07 (less than 1 second per iteration)
 Threads    : 12

                  Objective                Residual
Iter       Primal          Dual         Primal    Dual     Compl     Time
   0  -3.20935804e+04 -0.00000000e+00  5.29e+03 1.00e+00  8.78e+01     0s
   1  -3.36989645e+04  7.33552831e+02  2.33e+03 5.30e+00  5.02e+01     0s
   2  -3.15632185e+04  9.03488072e+02  5.32e+02 1.86e+00  1.76e+01     0s
   3  -2.27699979e+04  6.82575467e+02  5.89e+01 6.69e-01  6.15e+00     0s
   4  -9.24697410e+03  5.15365438e+02  3.07e+00 1.95e-01  1.72e+00     0s
   5  -2.44939870e+03  3.01113090e+02  6.84e-01 2.41e-02  3.25e-01     0s
   6  -5.58173044e+02  1.26966601e+02  1.59e-01 2.70e-03  6.99e-02     0s
   7  -1.50466030e+02  6.92104311e+01  4.40e-02 1.16e-03  2.39e-02     0s
   8  -2.70269118e+01  1.24441219e+01  7.51e-03 5.11e-05  3.66e-03     0s
   9   1.11110469e+00  3.75512835e+00  3.65e-04 6.08e-07  2.35e-04     0s
  10   3.12797144e+00  3.14138772e+00  2.81e-07 4.00e-09  1.16e-06     0s
  11   3.13699681e+00  3.13700015e+00  7.83e-08 1.83e-12  1.19e-10     0s
  12   3.13700000e+00  3.13700000e+00  5.51e-12 1.07e-14  1.92e-16     0s

Barrier solved model in 12 iterations and 0.04 seconds (0.04 work units)
Optimal objective 3.13700000e+00


User-callback calls 60, time in user-callback 0.00 sec
  α-step: Z₀=3.137000, α=[0.000,0.000,0.000,0.000,0.000,1.055,0.000,0.000,0.000,0.000,0.000,0.000,0.000,0.958,0.000,0.000,0.000,0.000,0.000,0.000,0.000,0.000,1.124,0.000,0.000,0.000,0.000,0.000,0.000,0.000,0.000,0.000,0.000,0.000,0.000,0.000]
  Alt-Benders[1] (mw): LB=3.136999, Z₀(α*)=3.137000, intercept=33.343152
  Alt-Benders[2] (mw): LB=3.137000, Z₀(α*)=3.137000, intercept=33.343152
  Alt-Benders[3] (mw): LB=3.137000, Z₀(α*)=3.137000, intercept=33.343152
  Alt-Benders[4] (mw): LB=3.137000, Z₀(α*)=3.137000, intercept=33.343152
  Alt-Benders[5]: LB stagnated, break
  OMP re-solve: 0.000s

=== True-DRO Benders iter 2 ===
  OMP: t₀=3.137000, UB=Inf, gap=NaN, x=[0, 0, 0, 0, 0, 1, 0, 0, 0, 0, 0, 0, 0, 1, 0, 0, 0, 0, 0, 0, 0, 0, 1, 0, 0, 0, 0, 0, 0, 0, 0, 0, 0, 0, 0, 0] (0.000s)
Set parameter TimeLimit to value 30
Set parameter MIPGap to value 0.0001
Set parameter MIPFocus to value 0
Gurobi Optimizer version 13.0.0 build v13.0.0rc1 (win64 - Windows 10.0 (19045.2))

CPU model: AMD Ryzen 9 5900X 12-Core Processor, instruction set [SSE2|AVX|AVX2]
Thread count: 12 physical cores, 24 logical processors, using up to 24 threads

Non-default parameters:
TimeLimit  30
OptimalityTarget  1
DualReductions  0
NonConvex  2

Optimize a model with 4218 rows, 8405 columns and 20033 nonzeros (Max)
Model fingerprint: 0x3f8d2e92
Model has 1496 linear objective coefficients
Model has 1440 quadratic constraints
Variable types: 8405 continuous, 0 integer (0 binary)
Coefficient statistics:
  Matrix range     [2e-01, 3e+01]
  QMatrix range    [1e+00, 1e+00]
  QLMatrix range   [1e+00, 1e+00]
  Objective range  [1e+00, 2e+00]
  Bounds range     [1e+00, 1e+01]
  RHS range        [5e-02, 3e+00]
Presolve removed 1440 rows and 1440 columns
Presolve time: 0.01s
Presolved: 2778 rows, 6965 columns, 12833 nonzeros
Presolved model has 1440 quadratic constraint(s)

Solving NLP to local optimality

Ordering time: 0.01s

NL barrier statistics:
  Hessian NZ  : 1.440e+03
  Jacobian NZ : 2.003e+04
  Factor NZ   : 1.308e+05
  Factor Ops  : 2.546e+06
  Threads     : 1

                           Residuals
Iter     Objective      Primal     Dual      Compl     Step     Time
   0  -1.09507749e+04  7.68e+04  2.94e+03  3.71e+02  0.00e+00     0s
   1  -1.13925349e+04  5.76e+04  2.59e+03  3.27e+02  2.51e-01     0s
   2  -1.21237082e+04  3.31e+04  2.18e+03  2.89e+02  4.24e-01     0s
   3  -1.24430859e+04  2.41e+04  1.21e+03  1.54e+02  2.74e-01     0s
   4  -1.25899857e+04  1.95e+04  4.96e+02  5.74e+01  1.90e-01     0s
   5  -1.23519864e+04  5.53e+03  2.57e+02  2.90e+01  7.16e-01     0s
   6  -1.18277877e+04  4.25e+03  6.54e+01  8.80e+00  2.32e-01     0s
   7  -7.67591520e+03  7.42e+02  6.86e+00  1.72e+00  8.25e-01     0s
   8  -6.10732667e+03  3.39e+02  2.67e+00  1.32e+00  5.43e-01     0s
   9  -5.67832186e+03  2.19e+02  1.65e+00  1.20e+00  3.54e-01     0s
  10  -5.40033027e+03  1.41e+02  8.98e-01  1.12e+00  3.57e-01     0s
  11  -5.18872093e+03  8.29e+01  5.45e-01  1.07e+00  4.11e-01     0s
  12  -5.00794919e+03  4.56e+01  3.51e-01  1.04e+00  4.51e-01     0s
  13  -4.92576554e+03  2.69e+01  3.52e-02  1.02e+00  4.11e-01     0s
  14  -4.81412728e+03  3.06e-06  2.16e-04  1.00e+00  1.00e+00     0s
  15  -4.80983334e+03  2.61e-08  8.03e-07  1.00e+00  1.00e+00     0s
  16  -4.80959336e+03  4.70e-09  1.54e-07  1.00e+00  1.00e+00     0s
  17  -2.72503386e+03  2.17e-05  4.12e-03  4.10e-01  6.24e-01     0s
  18  -1.40592684e+03  1.66e-04  6.14e-02  3.05e-01  7.14e-01     0s
  19  -1.01335107e+03  1.32e-04  2.99e-02  1.72e-01  5.93e-01     0s
  20  -7.44988970e+02  4.83e-04  1.26e-02  1.50e-01  1.00e+00     0s
  21  -7.50136205e+02  7.06e-06  4.28e-04  1.50e-01  1.00e+00     0s
  22  -7.49926489e+02  2.84e-09  1.81e-07  1.50e-01  1.00e+00     0s
  23  -4.94787979e+02  2.56e-04  1.12e-01  8.71e-02  3.57e-01     0s
  24  -2.53454678e+02  5.77e-03  2.08e-01  5.26e-02  5.44e-01     0s
  25  -1.18626632e+02  3.11e-03  2.74e-01  3.23e-02  7.32e-01     0s
  26  -8.12688989e+01  9.12e-04  2.42e-02  2.25e-02  1.00e+00     0s
  27  -8.27518543e+01  1.08e-05  7.38e-04  2.25e-02  1.00e+00     0s
  28  -3.34379446e+01  7.54e-04  6.15e-02  1.14e-02  5.96e-01     0s
  29  -1.36627056e+01  5.52e-04  4.39e-02  5.84e-03  7.28e-01     0s
  30  -8.10259872e+00  3.56e-05  8.43e-03  3.38e-03  1.00e+00     0s
  31  -8.04121033e+00  4.49e-05  7.03e-04  3.38e-03  1.00e+00     0s
  32  -8.04296708e+00  2.43e-08  1.43e-06  3.37e-03  1.00e+00     0s
  33  -3.99643602e-01  7.95e-05  1.27e-02  7.64e-04  7.41e-01     0s
  34   1.90139402e+00  1.33e-05  1.77e-03  3.54e-04  9.42e-01     0s
  35   2.02440813e+00  8.70e-06  4.77e-04  3.46e-04  1.00e+00     0s
  36   2.02464666e+00  1.12e-07  6.50e-06  3.46e-04  1.00e+00     0s
  37   2.86979400e+00  9.24e-06  9.20e-04  7.03e-05  7.88e-01     0s
  38   3.08856934e+00  1.12e-06  2.54e-04  1.45e-05  9.87e-01     0s
  39   3.09136852e+00  4.89e-07  1.24e-05  1.43e-05  1.00e+00     0s
  40   3.09136902e+00  8.93e-10  1.65e-08  1.43e-05  1.00e+00     0s
  41   3.13538709e+00  2.61e-08  5.11e-06  3.26e-07  9.76e-01     0s
  42   3.13647354e+00  8.67e-10  4.76e-09  1.65e-07  1.00e+00     0s
  43   3.13699681e+00  4.68e-12  8.99e-10  1.00e-09  1.00e+00     0s

NL barrier solved model in 43 iterations and 0.20 seconds (0.26 work units)
First-order optimal solution
Solution objective 3.136996810418e+00

User-callback calls 184, time in user-callback 0.00 sec
  Sub: Z₀=3.136997 [LOCAL], α=[0.000,0.000,0.000,0.000,0.000,1.037,0.000,0.000,0.000,0.000,0.000,0.000,0.000,0.895,0.000,0.000,0.000,0.000,0.000,0.000,0.000,0.000,1.205,0.000,0.000,0.000,0.000,0.000,0.000,0.000,0.000,0.000,0.000,0.000,0.000,0.000]
  Iter 2: LB=3.137000  UB=Inf  gap=NaN
  Cut: intercept=-913.387986, π_x_range=[-416.4528, 306.2769]
  [ρ-diag] φ̂U=1.00, φ̃U=2.00, λU=2.00
    π_L range=[-134.3499, 96.2769], |π_L|_∞=134.3499
    π_F range=[-268.7695, 193.9375], |π_F|_∞=268.7695
    π_ψ range=[-13.3333, 18.2134], |π_ψ|_∞=18.2134
    ρ̂1: [0.0004, 6.8234], ρ̂3: [0.0000, 4.9785]
    ρ̃1: [0.0000, 6.8274], ρ̃3: [0.0000, 4.9781]
    ρ⁰1: [0.0000, 6.6667], ρ⁰3: [0.0000, 9.1067]
  [φ-diag] φ̂ actual: [0.0000, 1.0000], φ̂U=1.00
  [φ-diag] φ̃ actual: [-0.0000, 0.0000], φ̃U=2.00
  Mini-Benders[1] (mw): LB=3.137000, Z₀(α*)=3.137000, intercept=33.371430
  Mini-Benders[2] (mw): LB=3.137000, Z₀(α*)=3.137000, intercept=33.371430
  Mini-Benders[3]: LB stagnated, break
Gurobi Optimizer version 13.0.0 build v13.0.0rc1 (win64 - Windows 10.0 (19045.2))

CPU model: AMD Ryzen 9 5900X 12-Core Processor, instruction set [SSE2|AVX|AVX2]
Thread count: 12 physical cores, 24 logical processors, using up to 24 threads

Non-default parameters:
DualReductions  0
NonConvex  2

Optimize a model with 4218 rows, 8405 columns and 20033 nonzeros (Max)
Model fingerprint: 0x8a0d9a14
Model has 1496 linear objective coefficients
Model has 1440 quadratic constraints
Coefficient statistics:
  Matrix range     [2e-01, 3e+01]
  QMatrix range    [1e+00, 1e+00]
  QLMatrix range   [1e+00, 1e+00]
  Objective range  [1e+00, 2e+00]
  Bounds range     [2e-02, 3e+00]
  RHS range        [5e-02, 3e+00]
Presolve removed 102 rows and 832 columns
Presolve time: 0.00s
Presolved: 4764 rows, 7573 columns, 17737 nonzeros
Ordering time: 0.00s

Barrier statistics:
 Free vars  : 200
 AA' NZ     : 1.775e+04
 Factor NZ  : 1.505e+05 (roughly 6 MB of memory)
 Factor Ops : 1.434e+07 (less than 1 second per iteration)
 Threads    : 12

                  Objective                Residual
Iter       Primal          Dual         Primal    Dual     Compl     Time
   0  -3.61907880e+04 -0.00000000e+00  5.95e+03 1.00e+00  9.88e+01     0s
   1  -3.80340257e+04  6.92014528e+02  2.62e+03 5.30e+00  5.65e+01     0s
   2  -3.56616864e+04  8.40114467e+02  5.99e+02 1.86e+00  1.98e+01     0s
   3  -2.57737283e+04  6.22807800e+02  6.65e+01 6.68e-01  6.92e+00     0s
   4  -1.05229157e+04  4.63469030e+02  3.46e+00 1.95e-01  1.93e+00     0s
   5  -2.51442912e+03  2.81585543e+02  4.99e-01 2.43e-02  3.39e-01     0s
   6  -7.03797938e+02  1.20652900e+02  1.38e-01 3.46e-03  8.62e-02     0s
   7  -1.79707452e+02  6.40759048e+01  3.56e-02 1.41e-03  2.76e-02     0s
   8  -4.43339350e+01  1.97455998e+01  8.47e-03 1.77e-04  6.41e-03     0s
   9  -6.60510986e-01  5.05873354e+00  4.96e-04 7.85e-06  5.45e-04     0s
  10   2.63879921e+00  3.22613658e+00  5.57e-05 1.11e-07  5.18e-05     0s
  11   3.08135554e+00  3.13974897e+00  5.91e-06 3.24e-09  5.00e-06     0s
  12   3.13693936e+00  3.13705861e+00  3.87e-07 1.62e-10  1.05e-08     0s
  13   3.13700000e+00  3.13700000e+00  4.67e-11 7.77e-15  1.44e-14     0s

Barrier solved model in 13 iterations and 0.05 seconds (0.04 work units)
Optimal objective 3.13700000e+00


User-callback calls 61, time in user-callback 0.00 sec
  α-step: Z₀=3.137000, α=[0.000,0.000,0.000,0.000,0.000,1.041,0.000,0.000,0.000,0.000,0.000,0.000,0.000,0.918,0.000,0.000,0.000,0.000,0.000,0.000,0.000,0.000,1.178,0.000,0.000,0.000,0.000,0.000,0.000,0.000,0.000,0.000,0.000,0.000,0.000,0.000]
  Alt-Benders[1] (mw): LB=3.137000, Z₀(α*)=3.137000, intercept=33.362118
  Alt-Benders[2] (mw): LB=3.137000, Z₀(α*)=3.137000, intercept=33.362118
  Alt-Benders[3]: LB stagnated, break
  OMP re-solve: 0.000s

=== True-DRO Benders iter 3 ===
  OMP: t₀=3.137000, UB=Inf, gap=NaN, x=[0, 0, 0, 0, 0, 1, 0, 0, 0, 0, 0, 0, 0, 1, 0, 0, 0, 0, 0, 0, 0, 0, 1, 0, 0, 0, 0, 0, 0, 0, 0, 0, 0, 0, 0, 0] (0.000s)
Set parameter TimeLimit to value 30
Set parameter MIPGap to value 0.0001
Set parameter MIPFocus to value 0
Gurobi Optimizer version 13.0.0 build v13.0.0rc1 (win64 - Windows 10.0 (19045.2))

CPU model: AMD Ryzen 9 5900X 12-Core Processor, instruction set [SSE2|AVX|AVX2]
Thread count: 12 physical cores, 24 logical processors, using up to 24 threads

Non-default parameters:
TimeLimit  30
DualReductions  0
NonConvex  2

Optimize a model with 4218 rows, 8405 columns and 20033 nonzeros (Max)
Model fingerprint: 0x21c61fcf
Model has 1496 linear objective coefficients
Model has 1440 quadratic constraints
Coefficient statistics:
  Matrix range     [2e-01, 3e+01]
  QMatrix range    [1e+00, 1e+00]
  QLMatrix range   [1e+00, 1e+00]
  Objective range  [1e+00, 2e+00]
  Bounds range     [1e+00, 3e+00]
  RHS range        [5e-02, 3e+00]

Continuous model is non-convex -- solving as a MIP

Presolve time: 0.01s
Presolved: 9978 rows, 8406 columns, 31553 nonzeros
Presolved model has 1440 bilinear constraint(s)
Variable types: 8406 continuous, 0 integer (0 binary)
Found heuristic solution: objective 3.1369970

Root relaxation: objective 9.411000e+00, 4526 iterations, 0.12 seconds (0.21 work units)

    Nodes    |    Current Node    |     Objective Bounds      |     Work
 Expl Unexpl |  Obj  Depth IntInf | Incumbent    BestBd   Gap | It/Node Time

     0     0    9.41100    0  198    3.13700    9.41100   200%     -    0s
     0     0          -    0         3.13700    3.13700  0.00%     -    0s

Cutting planes:
  RLT: 55

Explored 1 nodes (4549 simplex iterations) in 0.28 seconds (0.40 work units)
Thread count was 24 (of 24 available processors)

Solution count 1: 3.137 

Optimal solution found (tolerance 1.00e-04)
Best objective 3.136997003706e+00, best bound 3.137000000000e+00, gap 0.0001%

User-callback calls 113, time in user-callback 0.00 sec
  Sub: Z₀=3.136997, α=[0.000,0.000,0.000,0.000,0.000,1.048,0.000,0.000,0.000,0.000,0.000,0.000,0.000,0.903,0.000,0.000,0.000,0.000,0.000,0.000,0.000,0.000,1.186,0.000,0.000,0.000,0.000,0.000,0.000,0.000,0.000,0.000,0.000,0.000,0.000,0.000]
  Iter 3: LB=3.137000  UB=3.136997  gap=9.87e-07
True-DRO Benders converged at iter 3 (gap=9.87e-07)
  Wall time: 3.10 sec
  OMP  time: mean=0.056s, median=0.074s, max=0.138s
  Sub  time (exact): mean=0.293s, median=0.293s, q90=0.293s, max=0.293s (n=1/3)

----------------------------------------
True-DRO: status=Optimal, Z₀=3.136997, iters=3, time=3.10s
  LB=3.137000, UB=3.136997, gap=9.87e-07
  x* = [0, 0, 0, 0, 0, 1, 0, 0, 0, 0, 0, 0, 0, 1, 0, 0, 0, 0, 0, 0, 0, 0, 1, 0, 0, 0, 0, 0, 0, 0, 0, 0, 0, 0, 0, 0]
  α* = [0.000, 0.000, 0.000, 0.000, 0.000, 1.048, 0.000, 0.000, 0.000, 0.000, 0.000, 0.000, 0.000, 0.903, 0.000, 0.000, 0.000, 0.000, 0.000, 0.000, 0.000, 0.000, 1.186, 0.000, 0.000, 0.000, 0.000, 0.000, 0.000, 0.000, 0.000, 0.000, 0.000, 0.000, 0.000, 0.000]
  Profile saved → C:\Users\user\robust_bilevel_network_games\true_dro\profiles.jls (26 entries)
============================================================
Primal Recovery: x* → α* → (h*, λ*, ψ⁰*)
============================================================
  x* = [0, 0, 0, 0, 0, 1, 0, 0, 0, 0, 0, 0, 0, 1, 0, 0, 0, 0, 0, 0, 0, 0, 1, 0, 0, 0, 0, 0, 0, 0, 0, 0, 0, 0, 0, 0]
  α* = [0.0000, 0.0000, 0.0000, 0.0000, 0.0000, 1.0480, 0.0000, 0.0000, 0.0000, 0.0000, 0.0000, 0.0000, 0.0000, 0.9026, 0.0000, 0.0000, 0.0000, 0.0000, 0.0000, 0.0000, 0.0000, 0.0000, 1.1864, 0.0000, 0.0000, 0.0000, 0.0000, 0.0000, 0.0000, 0.0000, 0.0000, 0.0000, 0.0000, 0.0000, 0.0000, 0.0000]

  Piece-F obj = 0.000000
  λ*   = -0.000000
  Σh*  = 0.000000  (budget: λw = -0.000000)

  h* (nonzero arcs):
  ψ⁰* (nonzero arcs):

  Per-scenario sink flow ỹ_ts:
    s=1: ỹ_ts=-0.000000
    s=2: ỹ_ts=-0.000000
    s=3: ỹ_ts=-0.000000
    s=4: ỹ_ts=-0.000000
    s=5: ỹ_ts=-0.000000
    s=6: ỹ_ts=-0.000000
    s=7: ỹ_ts=-0.000000
    s=8: ỹ_ts=-0.000000
    s=9: ỹ_ts=-0.000000
    s=10: ỹ_ts=-0.000000
    s=11: ỹ_ts=-0.000000
    s=12: ỹ_ts=-0.000000
    s=13: ỹ_ts=-0.000000
    s=14: ỹ_ts=-0.000000
    s=15: ỹ_ts=-0.000000
    s=16: ỹ_ts=-0.000000
    s=17: ỹ_ts=-0.000000
    s=18: ỹ_ts=-0.000000
    s=19: ỹ_ts=-0.000000
    s=20: ỹ_ts=-0.000000

  Z₀(Benders) = 3.136997
  Piece-F(recovered) = 0.000000

Finished: 2026-04-17T14:26:30.142
